SPARKNaCl/why3-cvc5/sparknacl-hashing-rfsb509.adb_180_25_initialization2_1.smt2
;; produced by cvc5.drv ;;
(set-logic ALL)
(set-info :smt-lib-version 2.6)
;;; generated by SMT-LIB2 driver
;;; SMT-LIB2 driver: bit-vectors, common part
;;; SMT-LIB2: integer arithmetic
;; "pow2"
(declare-fun pow2 (Int) Int)

(declare-const two_power_size_minus_one Int)

;; "two_power_size_minus_one_val"
(assert (= two_power_size_minus_one (pow2 (- 8 1))))

;; "min"
(define-fun min ((x Int) (y Int)) Int
  (ite (<= x y) x y))

;; "max"
(define-fun max ((x Int) (y Int)) Int
  (ite (<= x y) y x))

;; "Min_r"
(assert (forall ((x Int) (y Int)) (=> (<= y x) (= (min x y) y))))

;; "Max_l"
(assert (forall ((x Int) (y Int)) (=> (<= y x) (= (max x y) x))))

;; "Min_comm"
(assert (forall ((x Int) (y Int)) (= (min x y) (min y x))))

;; "Max_comm"
(assert (forall ((x Int) (y Int)) (= (max x y) (max y x))))

;; "Min_assoc"
(assert
  (forall ((x Int) (y Int) (z Int)) (= (min (min x y) z) (min x (min y z)))))

;; "Max_assoc"
(assert
  (forall ((x Int) (y Int) (z Int)) (= (max (max x y) z) (max x (max y z)))))

(declare-sort byte 0)

(declare-datatypes ((byte__init_wrapper 0))
  (((byte__init_wrapperqtmk (rec__value byte)(us_attr__init Bool)))))

;; "to_rep"
(declare-fun to_rep (byte) (_ BitVec 8))

;; "of_rep"
(declare-fun of_rep ((_ BitVec 8)) byte)

;; "inversion_axiom"
(assert
  (forall ((x byte)) (! (= (of_rep (to_rep x)) x) :pattern ((to_rep x)) )))

;; "range_axiom"
(assert true)

;; "coerce_axiom"
(assert
  (forall ((x (_ BitVec 8)))
    (! (= (to_rep (of_rep x)) x) :pattern ((to_rep (of_rep x))) )))

(declare-sort map1 0)

;; "has_bounds"
(declare-fun has_bounds (map1
  Int
  Int) Bool)

;; "get"
(declare-fun get (map1
  Int) byte__init_wrapper)

(declare-sort map2 0)

;; "has_bounds"
(declare-fun has_bounds1 (map2
  Int
  Int) Bool)

;; "get"
(declare-fun get1 (map2
  Int) byte)

;; "__is_initialized"
(define-fun us_is_initialized ((temp___expr_359 map1)) Bool
  (forall ((temp___360 Int))
    (=>
      (and (<= 0 temp___360) (<= temp___360 63))
      (= (us_attr__init (get temp___expr_359 temp___360)) true))))

;; "convert"
(declare-fun convert (map1) map2)

;; "convert__def"
(assert
  (forall ((a map1))
    (forall ((temp___169 Int))
      (= (to_rep (of_rep (to_rep (rec__value (get a temp___169))))) (to_rep
                                                                    (get1
                                                                    (convert
                                                                    a)
                                                                    temp___169))))))

;; "dynamic_invariant"
(define-fun dynamic_invariant ((temp___expr_371 map2) (temp___is_init_367 Bool) (temp___skip_constant_368 Bool) (temp___do_toplevel_369 Bool) (temp___do_typ_inv_370 Bool)) Bool
  (and
    (=>
      (= temp___is_init_367 true)
      (=>
        (= temp___do_toplevel_369 true)
        (= (bvand (to_rep (get1 temp___expr_371 63)) #xE0) #x00)))
    (has_bounds1 temp___expr_371 0 63)))

(declare-const block map2)

;; Goal "def'vc"
;; File "sparknacl-hashing-rfsb509.adb", line 54, characters 0-0
(assert
  (not
  (forall ((chain_value map2) (sum map2) (column map2))
    (=>
      (dynamic_invariant chain_value true false true true)
      (=>
        (has_bounds1 block 0 47)
        (=>
          (dynamic_invariant sum false false true true)
          (=>
            (dynamic_invariant column false false true true)
            (forall ((o (_ BitVec 8)))
              (=>
                (= (to_rep (get1 chain_value 0)) o)
                (forall ((param__column map1))
                  (=>
                    (and
                      (and
                        (us_is_initialized param__column)
                        (= (bvand (to_rep
                                    (rec__value (get param__column 63))) #xE0) #x00))
                      (has_bounds param__column 0 63))
                    (= (bvand (to_rep (get1 (convert param__column) 63)) #xE0) #x00))))))))))))

(check-sat)
